[[7, 35, 53, 14, 59, 11, 66, 65, 38, 10, 31, 58, 72, 39, 12, 40], [9, 32, 25, 55, 50, 18, 24, 49, 3, 44, 17, 51, 6, 33, 16], [63, 23, 56, 43, 41, 42, 64, 22, 62, 73, 28, 2, 74], [61, 21, 47, 69, 36, 71, 60, 70, 20, 37, 15, 57, 5, 29, 48], [45, 30, 68, 4, 75, 76, 26, 67, 34, 46, 52, 27, 13, 54, 19, 8]]